/*********************************************
 * OPL 12.9.0.0 Data
 * Author: iefcyang
 * Creation Date: Apr 5, 2023 at 1:35:41 PM
 *********************************************/
NumberOfNodes = 3;
NumberOfPDPoints= [5,2,4];
FromToTimes = #[
<0 0 0>: 10 <0 0 1> : 20 <0 0 2>: 10 <0 0 3> : 20  <0 0 4 > : 10
<0 1 0>: 10 <0 1 1> : 20 <0 1 2>: 10 <0 1 3> : 20  <0 1 4 > : 10
<0 2 0>: 10 <0 2 1> : 20 <0 2 2>: 10 <0 2 3> : 20  <0 2 4 > : 10
<0 3 0>: 10 <0 3 1> : 20 <0 3 2>: 10 <0 3 3> : 20  <0 3 4 > : 10
<0 4 0>: 10 <0 4 1> : 20 <0 4 2>: 10 <0 4 3> : 20  <0 4 4 > : 10
<1 0 0>: 17 <1 0 1> : 7
<1 1 0>: 17 <1 1 1> : 7
<2 0 0>: 10 <2 0 1> : 20 <2 0 2>: 10 <0 0 3> : 20 
<2 1 0>: 10 <2 1 1> : 20 <2 1 2>: 10 <0 1 3> : 20 
<2 2 0>: 10 <2 2 1> : 20 <2 2 2>: 10 <0 2 3> : 20 
<2 3 0>: 10 <2 3 1> : 20 <2 3 2>: 10 <0 3 3> : 20 
]#;

NumberOfTransferSites= 18;
TransferSites = [
< 5 5 4 1 >
< 4 2 5 4 >
];


NumberOfJobs = 2;
NumberOfOperationsInJobs = [ 4,3 ];
operations =
[
< 2 5 4 > <1 0 6 >
];
//--Job0-OperationCount: 5
//Operation0: 2 5 4
//Operation1: 1 0 6
//Operation2: 6 1 3
//Operation3: 7 6 1
//Operation4: 8 5 3
//--Job1-OperationCount: 4
//Operation0: 3 1 2
//Operation1: 2 7 4
//Operation2: 1 0 6
//Operation3: 6 1 5
//--Job2-OperationCount: 5
//Operation0: 6 3 2
//Operation1: 1 5 7
//Operation2: 2 5 6
//Operation3: 3 3 0
//Operation4: 4 4 3
//--Job3-OperationCount: 6
//Operation0: 4 0 3
//Operation1: 3 1 2
//Operation2: 2 7 4
//Operation3: 1 0 6
//Operation4: 6 1 3
//Operation5: 7 6 0
//--Job4-OperationCount: 6
//Operation0: 5 3 5
//Operation1: 4 1 3
//Operation2: 3 1 2
//Operation3: 2 7 4
//Operation4: 1 0 6
//Operation5: 6 1 3
//--Job5-OperationCount: 5
//Operation0: 4 5 3
//Operation1: 3 1 2
//Operation2: 2 7 4
//Operation3: 1 0 2
//Operation4: 0 4 2
//--Job6-OperationCount: 6
//Operation0: 4 1 3
//Operation1: 3 1 2
//Operation2: 2 7 4
//Operation3: 1 0 6
//Operation4: 6 1 3
//Operation5: 7 6 4
//--Job7-OperationCount: 6
//Operation0: 5 1 5
//Operation1: 4 1 3
//Operation2: 3 1 2
//Operation3: 2 7 2
//Operation4: 0 7 5
//Operation5: 1 1 7
//--Job8-OperationCount: 5
//Operation0: 3 7 2
//Operation1: 2 7 4
//Operation2: 1 0 6
//Operation3: 6 1 3
//Operation4: 7 6 2
//--Job9-OperationCount: 9
//Operation0: 8 1 4
//Operation1: 7 2 5
//Operation2: 6 4 2
//Operation3: 1 5 2
//Operation4: 0 4 6
//Operation5: 2 3 6
//Operation6: 3 3 0
//Operation7: 4 4 2
//Operation8: 5 4 1
//--Job10-OperationCount: 6
//Operation0: 5 3 5
//Operation1: 4 1 3
//Operation2: 3 1 2
//Operation3: 2 7 2
//Operation4: 0 7 5
//Operation5: 1 1 0
//--Job11-OperationCount: 6
//Operation0: 4 4 3
//Operation1: 3 1 2
//Operation2: 2 7 2
//Operation3: 0 7 5
//Operation4: 1 1 6
//Operation5: 6 1 3
//--Job12-OperationCount: 7
//Operation0: 6 7 2
//Operation1: 1 5 2
//Operation2: 0 4 6
//Operation3: 2 3 6
//Operation4: 3 3 0
//Operation5: 4 4 2
//Operation6: 5 4 2
//--Job13-OperationCount: 8
//Operation0: 5 4 5
//Operation1: 4 1 3
//Operation2: 3 1 2
//Operation3: 2 7 2
//Operation4: 0 7 5
//Operation5: 1 1 6
//Operation6: 6 1 3
//Operation7: 7 6 0
//--Job14-OperationCount: 8
//Operation0: 4 5 3
//Operation1: 3 1 2
//Operation2: 2 7 2
//Operation3: 0 7 5
//Operation4: 1 1 6
//Operation5: 6 1 3
//Operation6: 7 6 1
//Operation7: 8 5 0
//--Job15-OperationCount: 7
//Operation0: 8 2 4
//Operation1: 7 2 5
//Operation2: 6 4 2
//Operation3: 1 5 2
//Operation4: 0 4 6
//Operation5: 2 3 6
//Operation6: 3 3 4
//--Job16-OperationCount: 6
//Operation0: 0 2 5
//Operation1: 1 1 7
//Operation2: 2 5 6
//Operation3: 3 3 0
//Operation4: 4 4 2
//Operation5: 5 4 3
//--Job17-OperationCount: 5
//Operation0: 0 4 5
//Operation1: 1 1 7
//Operation2: 2 5 6
//Operation3: 3 3 0
//Operation4: 4 4 3
//--Job18-OperationCount: 8
//Operation0: 7 2 5
//Operation1: 6 4 2
//Operation2: 1 5 2
//Operation3: 0 4 6
//Operation4: 2 3 6
//Operation5: 3 3 0
//Operation6: 4 4 2
//Operation7: 5 4 3
//--Job19-OperationCount: 4
//Operation0: 8 3 4
//Operation1: 7 2 5
//Operation2: 6 4 2
//Operation3: 1 5 2

